
Gurobi 9.5.1 (win64, gurobi_cl) logging started Mon Aug  1 07:31:11 2022

Set parameter Username
Set parameter LogFile to value "gurobi.log"

Gurobi 9.5.1 (win64, gurobi_cl) logging started Mon Aug  1 07:53:49 2022

Set parameter Username
Set parameter LogFile to value "gurobi.log"

Gurobi 9.5.1 (win64, gurobi_cl) logging started Mon Aug  1 11:12:13 2022

Set parameter Username
Set parameter LogFile to value "gurobi.log"

Gurobi 9.5.1 (win64, gurobi_cl) logging started Mon Aug  1 11:17:00 2022

Set parameter Username
Set parameter LogFile to value "gurobi.log"

Gurobi 9.5.1 (win64, Python) logging started Sat Aug  6 10:35:58 2022

Set parameter Username
Set parameter LogFile to value "gurobi.log"
Academic license - for non-commercial use only - expires 2023-07-27
